(set-info :smt-lib-version 2.6)
(set-logic QF_NIA)
(set-info :source |
Generated by: Cristina Borralleras, Daniel Larraz, Albert Oliveras, Enric Rodriguez-Carbonell, Albert Rubio
Generated on: 2017-04-27
Generator: VeryMax
Application: Termination proving
Target solver: barcelogic
|)
(set-info :license "https://creativecommons.org/licenses/by/4.0/")
(set-info :category "industrial")
(set-info :status sat)
(declare-fun Nl2arg11 () Int)
(declare-fun Nl2arg21 () Int)
(declare-fun Nl2arg31 () Int)
(declare-fun Nl2arg41 () Int)
(declare-fun Nl2arg51 () Int)
(declare-fun Nl2arg12 () Int)
(declare-fun Nl2arg22 () Int)
(declare-fun Nl2arg32 () Int)
(declare-fun Nl2arg42 () Int)
(declare-fun Nl2arg52 () Int)
(declare-fun Nl2arg13 () Int)
(declare-fun Nl2arg23 () Int)
(declare-fun Nl2arg33 () Int)
(declare-fun Nl2arg43 () Int)
(declare-fun Nl2arg53 () Int)
(declare-fun lam0n0 () Int)
(declare-fun lam0n1 () Int)
(declare-fun lam0n2 () Int)
(declare-fun lam0n3 () Int)
(declare-fun lam0n4 () Int)
(declare-fun lam0n5 () Int)
(declare-fun lam0n7 () Int)
(declare-fun lam0n8 () Int)
(declare-fun lam0n9 () Int)
(declare-fun Nl2CT1 () Int)
(declare-fun Nl2CT2 () Int)
(declare-fun Nl2CT3 () Int)
(declare-fun lam0n6 () Int)
(declare-fun lam1n0 () Int)
(declare-fun lam1n1 () Int)
(declare-fun lam1n2 () Int)
(declare-fun lam1n3 () Int)
(declare-fun lam1n4 () Int)
(declare-fun lam1n5 () Int)
(declare-fun lam1n7 () Int)
(declare-fun lam1n8 () Int)
(declare-fun lam1n9 () Int)
(declare-fun lam1n6 () Int)
(declare-fun lam2n0 () Int)
(declare-fun lam2n1 () Int)
(declare-fun lam2n2 () Int)
(declare-fun lam2n3 () Int)
(declare-fun lam2n4 () Int)
(declare-fun lam2n5 () Int)
(declare-fun lam2n7 () Int)
(declare-fun lam2n8 () Int)
(declare-fun lam2n9 () Int)
(declare-fun lam2n6 () Int)
(declare-fun lam3n0 () Int)
(declare-fun lam3n1 () Int)
(declare-fun lam3n2 () Int)
(declare-fun lam3n3 () Int)
(declare-fun lam3n4 () Int)
(declare-fun lam3n5 () Int)
(declare-fun lam3n7 () Int)
(declare-fun lam3n8 () Int)
(declare-fun lam3n9 () Int)
(declare-fun lam3n6 () Int)
(declare-fun lam4n0 () Int)
(declare-fun lam4n1 () Int)
(declare-fun lam4n2 () Int)
(declare-fun lam4n3 () Int)
(declare-fun lam4n4 () Int)
(declare-fun lam4n5 () Int)
(declare-fun lam4n6 () Int)
(declare-fun lam4n7 () Int)
(declare-fun lam4n8 () Int)
(declare-fun lam4n10 () Int)
(declare-fun lam4n11 () Int)
(declare-fun lam4n12 () Int)
(declare-fun lam4n9 () Int)
(declare-fun lam5n0 () Int)
(declare-fun lam5n1 () Int)
(declare-fun lam5n2 () Int)
(declare-fun lam5n3 () Int)
(declare-fun lam5n4 () Int)
(declare-fun lam5n5 () Int)
(declare-fun lam5n6 () Int)
(declare-fun lam5n7 () Int)
(declare-fun lam5n8 () Int)
(declare-fun lam5n10 () Int)
(declare-fun lam5n11 () Int)
(declare-fun lam5n12 () Int)
(declare-fun lam5n9 () Int)
(declare-fun lam6n0 () Int)
(declare-fun lam6n1 () Int)
(declare-fun lam6n2 () Int)
(declare-fun lam6n3 () Int)
(declare-fun lam6n4 () Int)
(declare-fun lam6n5 () Int)
(declare-fun lam6n6 () Int)
(declare-fun lam6n7 () Int)
(declare-fun lam6n8 () Int)
(declare-fun lam6n10 () Int)
(declare-fun lam6n11 () Int)
(declare-fun lam6n12 () Int)
(declare-fun lam6n9 () Int)
(declare-fun lam7n0 () Int)
(declare-fun lam7n1 () Int)
(declare-fun lam7n2 () Int)
(declare-fun lam7n3 () Int)
(declare-fun lam7n4 () Int)
(declare-fun lam7n5 () Int)
(declare-fun lam7n6 () Int)
(declare-fun lam7n7 () Int)
(declare-fun lam7n8 () Int)
(declare-fun lam7n10 () Int)
(declare-fun lam7n11 () Int)
(declare-fun lam7n12 () Int)
(declare-fun lam7n9 () Int)
(declare-fun lam8n0 () Int)
(declare-fun lam8n1 () Int)
(declare-fun lam8n2 () Int)
(declare-fun lam8n4 () Int)
(declare-fun lam8n3 () Int)
(declare-fun lam9n0 () Int)
(declare-fun lam9n1 () Int)
(declare-fun lam9n2 () Int)
(declare-fun lam9n4 () Int)
(declare-fun lam9n3 () Int)
(declare-fun lam10n0 () Int)
(declare-fun lam10n1 () Int)
(declare-fun lam10n2 () Int)
(declare-fun lam10n4 () Int)
(declare-fun lam10n3 () Int)
(declare-fun lam11n0 () Int)
(declare-fun lam11n1 () Int)
(declare-fun lam11n2 () Int)
(declare-fun lam11n3 () Int)
(declare-fun lam11n4 () Int)
(declare-fun lam11n5 () Int)
(declare-fun lam11n6 () Int)
(declare-fun lam12n0 () Int)
(declare-fun lam12n1 () Int)
(declare-fun lam12n2 () Int)
(declare-fun lam12n3 () Int)
(declare-fun lam12n4 () Int)
(declare-fun lam12n5 () Int)
(declare-fun lam12n6 () Int)
(declare-fun lam13n0 () Int)
(declare-fun lam13n1 () Int)
(declare-fun lam13n2 () Int)
(declare-fun lam13n3 () Int)
(declare-fun lam13n4 () Int)
(declare-fun lam13n5 () Int)
(declare-fun lam13n6 () Int)
(declare-fun undef13 () Int)
(declare-fun undef33 () Int)
(declare-fun undef11 () Int)
(declare-fun undef34 () Int)
(declare-fun undef16 () Int)
(declare-fun undef17 () Int)
(declare-fun undef21 () Int)
(declare-fun lam17n0 () Int)
(declare-fun lam17n1 () Int)
(declare-fun lam17n2 () Int)
(declare-fun lam17n3 () Int)
(declare-fun lam17n4 () Int)
(declare-fun lam17n5 () Int)
(declare-fun lam17n7 () Int)
(declare-fun lam17n8 () Int)
(declare-fun lam17n9 () Int)
(declare-fun RFN1_CT () Int)
(declare-fun RFN1_arg1 () Int)
(declare-fun RFN1_arg2 () Int)
(declare-fun RFN1_arg3 () Int)
(declare-fun lam17n6 () Int)
(declare-fun RFN1_arg4 () Int)
(declare-fun RFN1_arg5 () Int)
(declare-fun lam15n0 () Int)
(declare-fun lam15n1 () Int)
(declare-fun lam15n2 () Int)
(declare-fun lam15n3 () Int)
(declare-fun lam15n4 () Int)
(declare-fun lam15n5 () Int)
(declare-fun lam15n7 () Int)
(declare-fun lam15n8 () Int)
(declare-fun lam15n9 () Int)
(declare-fun lam15n6 () Int)
(declare-fun lam16n0 () Int)
(declare-fun lam16n1 () Int)
(declare-fun lam16n2 () Int)
(declare-fun lam16n3 () Int)
(declare-fun lam16n4 () Int)
(declare-fun lam16n5 () Int)
(declare-fun lam16n7 () Int)
(declare-fun lam16n8 () Int)
(declare-fun lam16n9 () Int)
(declare-fun lam16n6 () Int)
(declare-fun lam14n0 () Int)
(declare-fun lam14n1 () Int)
(declare-fun lam14n2 () Int)
(declare-fun lam14n3 () Int)
(declare-fun lam14n4 () Int)
(declare-fun lam14n5 () Int)
(declare-fun lam14n7 () Int)
(declare-fun lam14n8 () Int)
(declare-fun lam14n9 () Int)
(declare-fun lam14n6 () Int)
(assert ( and ( <= ( - 9 ) Nl2arg11 ) ( <= Nl2arg11 9 ) ( <= ( - 9 ) Nl2arg21 ) ( <= Nl2arg21 9 ) ( <= ( - 9 ) Nl2arg31 ) ( <= Nl2arg31 9 ) ( <= ( - 9 ) Nl2arg41 ) ( <= Nl2arg41 9 ) ( <= ( - 9 ) Nl2arg51 ) ( <= Nl2arg51 9 ) ( <= ( - 9 ) Nl2arg12 ) ( <= Nl2arg12 9 ) ( <= ( - 9 ) Nl2arg22 ) ( <= Nl2arg22 9 ) ( <= ( - 9 ) Nl2arg32 ) ( <= Nl2arg32 9 ) ( <= ( - 9 ) Nl2arg42 ) ( <= Nl2arg42 9 ) ( <= ( - 9 ) Nl2arg52 ) ( <= Nl2arg52 9 ) ( <= ( - 9 ) Nl2arg13 ) ( <= Nl2arg13 9 ) ( <= ( - 9 ) Nl2arg23 ) ( <= Nl2arg23 9 ) ( <= ( - 9 ) Nl2arg33 ) ( <= Nl2arg33 9 ) ( <= ( - 9 ) Nl2arg43 ) ( <= Nl2arg43 9 ) ( <= ( - 9 ) Nl2arg53 ) ( <= Nl2arg53 9 ) ))
(assert ( or ( and ( >= lam0n0 0 ) ( >= lam0n1 0 ) ( >= lam0n2 0 ) ( >= lam0n3 0 ) ( >= lam0n4 0 ) ( >= lam0n5 0 ) ( >= lam0n7 0 ) ( >= lam0n8 0 ) ( >= lam0n9 0 ) ( > ( + ( * 1 lam0n3 ) ( * 1 lam0n4 ) ( * 1 lam0n5 ) ( * Nl2CT1 lam0n7 ) ( * Nl2CT2 lam0n8 ) ( * Nl2CT3 lam0n9 ) ( - 1 ) ) 0 ) ( = ( + ( * ( - 1 ) lam0n0 ) ( * ( - 1 ) lam0n3 ) ( * 1 lam0n6 ) ( * Nl2arg11 lam0n7 ) ( * Nl2arg12 lam0n8 ) ( * Nl2arg13 lam0n9 ) ) 0 ) ( = ( + ( * ( - 1 ) lam0n4 ) ( * ( - 1 ) lam0n6 ) ( * Nl2arg21 lam0n7 ) ( * Nl2arg22 lam0n8 ) ( * Nl2arg23 lam0n9 ) ) 0 ) ( = ( + ( * ( - 1 ) lam0n3 ) ( * ( - 1 ) lam0n4 ) ( * ( - 1 ) lam0n5 ) ( * Nl2arg31 lam0n7 ) ( * Nl2arg32 lam0n8 ) ( * Nl2arg33 lam0n9 ) ) 0 ) ( = ( + ( * 1 lam0n1 ) ( * ( - 1 ) lam0n2 ) ( * Nl2arg41 lam0n7 ) ( * Nl2arg42 lam0n8 ) ( * Nl2arg43 lam0n9 ) ) 0 ) ( = ( + ( * ( - 1 ) lam0n1 ) ( * ( - 1 ) lam0n3 ) ( * Nl2arg51 lam0n7 ) ( * Nl2arg52 lam0n8 ) ( * Nl2arg53 lam0n9 ) ) 0 ) ) ( and ( >= lam1n0 0 ) ( >= lam1n1 0 ) ( >= lam1n2 0 ) ( >= lam1n3 0 ) ( >= lam1n4 0 ) ( >= lam1n5 0 ) ( >= lam1n7 0 ) ( >= lam1n8 0 ) ( >= lam1n9 0 ) ( > ( + ( * 1 lam1n3 ) ( * 1 lam1n4 ) ( * 1 lam1n5 ) ( * Nl2CT1 lam1n7 ) ( * Nl2CT2 lam1n8 ) ( * Nl2CT3 lam1n9 ) ( - 1 ( + ( + ( + Nl2CT1 ( * Nl2arg11 1 ) ) ( * Nl2arg21 1 ) ) ( * Nl2arg31 9 ) ) ) ) 0 ) ( = ( + ( * ( - 1 ) lam1n0 ) ( * ( - 1 ) lam1n3 ) ( * 1 lam1n6 ) ( * Nl2arg11 lam1n7 ) ( * Nl2arg12 lam1n8 ) ( * Nl2arg13 lam1n9 ) ( - ( + ( + ( + 0 ( * Nl2arg11 1 ) ) ( * Nl2arg21 1 ) ) ( * Nl2arg31 ( - 1 ) ) ) ) ) 0 ) ( = ( + ( * ( - 1 ) lam1n4 ) ( * ( - 1 ) lam1n6 ) ( * Nl2arg21 lam1n7 ) ( * Nl2arg22 lam1n8 ) ( * Nl2arg23 lam1n9 ) ) 0 ) ( = ( + ( * ( - 1 ) lam1n3 ) ( * ( - 1 ) lam1n4 ) ( * ( - 1 ) lam1n5 ) ( * Nl2arg31 lam1n7 ) ( * Nl2arg32 lam1n8 ) ( * Nl2arg33 lam1n9 ) ) 0 ) ( = ( + ( * 1 lam1n1 ) ( * ( - 1 ) lam1n2 ) ( * Nl2arg41 lam1n7 ) ( * Nl2arg42 lam1n8 ) ( * Nl2arg43 lam1n9 ) ( - ( + 0 Nl2arg41 ) ) ) 0 ) ( = ( + ( * ( - 1 ) lam1n1 ) ( * ( - 1 ) lam1n3 ) ( * Nl2arg51 lam1n7 ) ( * Nl2arg52 lam1n8 ) ( * Nl2arg53 lam1n9 ) ( - ( + 0 Nl2arg51 ) ) ) 0 ) ) ))
(assert ( or ( and ( >= lam0n0 0 ) ( >= lam0n1 0 ) ( >= lam0n2 0 ) ( >= lam0n3 0 ) ( >= lam0n4 0 ) ( >= lam0n5 0 ) ( >= lam0n7 0 ) ( >= lam0n8 0 ) ( >= lam0n9 0 ) ( > ( + ( * 1 lam0n3 ) ( * 1 lam0n4 ) ( * 1 lam0n5 ) ( * Nl2CT1 lam0n7 ) ( * Nl2CT2 lam0n8 ) ( * Nl2CT3 lam0n9 ) ( - 1 ) ) 0 ) ( = ( + ( * ( - 1 ) lam0n0 ) ( * ( - 1 ) lam0n3 ) ( * 1 lam0n6 ) ( * Nl2arg11 lam0n7 ) ( * Nl2arg12 lam0n8 ) ( * Nl2arg13 lam0n9 ) ) 0 ) ( = ( + ( * ( - 1 ) lam0n4 ) ( * ( - 1 ) lam0n6 ) ( * Nl2arg21 lam0n7 ) ( * Nl2arg22 lam0n8 ) ( * Nl2arg23 lam0n9 ) ) 0 ) ( = ( + ( * ( - 1 ) lam0n3 ) ( * ( - 1 ) lam0n4 ) ( * ( - 1 ) lam0n5 ) ( * Nl2arg31 lam0n7 ) ( * Nl2arg32 lam0n8 ) ( * Nl2arg33 lam0n9 ) ) 0 ) ( = ( + ( * 1 lam0n1 ) ( * ( - 1 ) lam0n2 ) ( * Nl2arg41 lam0n7 ) ( * Nl2arg42 lam0n8 ) ( * Nl2arg43 lam0n9 ) ) 0 ) ( = ( + ( * ( - 1 ) lam0n1 ) ( * ( - 1 ) lam0n3 ) ( * Nl2arg51 lam0n7 ) ( * Nl2arg52 lam0n8 ) ( * Nl2arg53 lam0n9 ) ) 0 ) ) ( and ( >= lam2n0 0 ) ( >= lam2n1 0 ) ( >= lam2n2 0 ) ( >= lam2n3 0 ) ( >= lam2n4 0 ) ( >= lam2n5 0 ) ( >= lam2n7 0 ) ( >= lam2n8 0 ) ( >= lam2n9 0 ) ( > ( + ( * 1 lam2n3 ) ( * 1 lam2n4 ) ( * 1 lam2n5 ) ( * Nl2CT1 lam2n7 ) ( * Nl2CT2 lam2n8 ) ( * Nl2CT3 lam2n9 ) ( - 1 ( + ( + ( + Nl2CT2 ( * Nl2arg12 1 ) ) ( * Nl2arg22 1 ) ) ( * Nl2arg32 9 ) ) ) ) 0 ) ( = ( + ( * ( - 1 ) lam2n0 ) ( * ( - 1 ) lam2n3 ) ( * 1 lam2n6 ) ( * Nl2arg11 lam2n7 ) ( * Nl2arg12 lam2n8 ) ( * Nl2arg13 lam2n9 ) ( - ( + ( + ( + 0 ( * Nl2arg12 1 ) ) ( * Nl2arg22 1 ) ) ( * Nl2arg32 ( - 1 ) ) ) ) ) 0 ) ( = ( + ( * ( - 1 ) lam2n4 ) ( * ( - 1 ) lam2n6 ) ( * Nl2arg21 lam2n7 ) ( * Nl2arg22 lam2n8 ) ( * Nl2arg23 lam2n9 ) ) 0 ) ( = ( + ( * ( - 1 ) lam2n3 ) ( * ( - 1 ) lam2n4 ) ( * ( - 1 ) lam2n5 ) ( * Nl2arg31 lam2n7 ) ( * Nl2arg32 lam2n8 ) ( * Nl2arg33 lam2n9 ) ) 0 ) ( = ( + ( * 1 lam2n1 ) ( * ( - 1 ) lam2n2 ) ( * Nl2arg41 lam2n7 ) ( * Nl2arg42 lam2n8 ) ( * Nl2arg43 lam2n9 ) ( - ( + 0 Nl2arg42 ) ) ) 0 ) ( = ( + ( * ( - 1 ) lam2n1 ) ( * ( - 1 ) lam2n3 ) ( * Nl2arg51 lam2n7 ) ( * Nl2arg52 lam2n8 ) ( * Nl2arg53 lam2n9 ) ( - ( + 0 Nl2arg52 ) ) ) 0 ) ) ))
(assert ( or ( and ( >= lam0n0 0 ) ( >= lam0n1 0 ) ( >= lam0n2 0 ) ( >= lam0n3 0 ) ( >= lam0n4 0 ) ( >= lam0n5 0 ) ( >= lam0n7 0 ) ( >= lam0n8 0 ) ( >= lam0n9 0 ) ( > ( + ( * 1 lam0n3 ) ( * 1 lam0n4 ) ( * 1 lam0n5 ) ( * Nl2CT1 lam0n7 ) ( * Nl2CT2 lam0n8 ) ( * Nl2CT3 lam0n9 ) ( - 1 ) ) 0 ) ( = ( + ( * ( - 1 ) lam0n0 ) ( * ( - 1 ) lam0n3 ) ( * 1 lam0n6 ) ( * Nl2arg11 lam0n7 ) ( * Nl2arg12 lam0n8 ) ( * Nl2arg13 lam0n9 ) ) 0 ) ( = ( + ( * ( - 1 ) lam0n4 ) ( * ( - 1 ) lam0n6 ) ( * Nl2arg21 lam0n7 ) ( * Nl2arg22 lam0n8 ) ( * Nl2arg23 lam0n9 ) ) 0 ) ( = ( + ( * ( - 1 ) lam0n3 ) ( * ( - 1 ) lam0n4 ) ( * ( - 1 ) lam0n5 ) ( * Nl2arg31 lam0n7 ) ( * Nl2arg32 lam0n8 ) ( * Nl2arg33 lam0n9 ) ) 0 ) ( = ( + ( * 1 lam0n1 ) ( * ( - 1 ) lam0n2 ) ( * Nl2arg41 lam0n7 ) ( * Nl2arg42 lam0n8 ) ( * Nl2arg43 lam0n9 ) ) 0 ) ( = ( + ( * ( - 1 ) lam0n1 ) ( * ( - 1 ) lam0n3 ) ( * Nl2arg51 lam0n7 ) ( * Nl2arg52 lam0n8 ) ( * Nl2arg53 lam0n9 ) ) 0 ) ) ( and ( >= lam3n0 0 ) ( >= lam3n1 0 ) ( >= lam3n2 0 ) ( >= lam3n3 0 ) ( >= lam3n4 0 ) ( >= lam3n5 0 ) ( >= lam3n7 0 ) ( >= lam3n8 0 ) ( >= lam3n9 0 ) ( > ( + ( * 1 lam3n3 ) ( * 1 lam3n4 ) ( * 1 lam3n5 ) ( * Nl2CT1 lam3n7 ) ( * Nl2CT2 lam3n8 ) ( * Nl2CT3 lam3n9 ) ( - 1 ( + ( + ( + Nl2CT3 ( * Nl2arg13 1 ) ) ( * Nl2arg23 1 ) ) ( * Nl2arg33 9 ) ) ) ) 0 ) ( = ( + ( * ( - 1 ) lam3n0 ) ( * ( - 1 ) lam3n3 ) ( * 1 lam3n6 ) ( * Nl2arg11 lam3n7 ) ( * Nl2arg12 lam3n8 ) ( * Nl2arg13 lam3n9 ) ( - ( + ( + ( + 0 ( * Nl2arg13 1 ) ) ( * Nl2arg23 1 ) ) ( * Nl2arg33 ( - 1 ) ) ) ) ) 0 ) ( = ( + ( * ( - 1 ) lam3n4 ) ( * ( - 1 ) lam3n6 ) ( * Nl2arg21 lam3n7 ) ( * Nl2arg22 lam3n8 ) ( * Nl2arg23 lam3n9 ) ) 0 ) ( = ( + ( * ( - 1 ) lam3n3 ) ( * ( - 1 ) lam3n4 ) ( * ( - 1 ) lam3n5 ) ( * Nl2arg31 lam3n7 ) ( * Nl2arg32 lam3n8 ) ( * Nl2arg33 lam3n9 ) ) 0 ) ( = ( + ( * 1 lam3n1 ) ( * ( - 1 ) lam3n2 ) ( * Nl2arg41 lam3n7 ) ( * Nl2arg42 lam3n8 ) ( * Nl2arg43 lam3n9 ) ( - ( + 0 Nl2arg43 ) ) ) 0 ) ( = ( + ( * ( - 1 ) lam3n1 ) ( * ( - 1 ) lam3n3 ) ( * Nl2arg51 lam3n7 ) ( * Nl2arg52 lam3n8 ) ( * Nl2arg53 lam3n9 ) ( - ( + 0 Nl2arg53 ) ) ) 0 ) ) ))
(assert ( or ( and ( >= lam4n0 0 ) ( >= lam4n1 0 ) ( >= lam4n2 0 ) ( >= lam4n3 0 ) ( >= lam4n4 0 ) ( >= lam4n5 0 ) ( >= lam4n6 0 ) ( >= lam4n7 0 ) ( >= lam4n8 0 ) ( >= lam4n10 0 ) ( >= lam4n11 0 ) ( >= lam4n12 0 ) ( > ( + ( * 1 lam4n5 ) ( * 1 lam4n6 ) ( * 1 lam4n7 ) ( * 1 lam4n8 ) ( * Nl2CT1 lam4n10 ) ( * Nl2CT2 lam4n11 ) ( * Nl2CT3 lam4n12 ) ( - 1 ) ) 0 ) ( = ( + ( * ( - 1 ) lam4n0 ) ( * ( - 1 ) lam4n1 ) ( * ( - 1 ) lam4n5 ) ( * 1 lam4n9 ) ( * Nl2arg11 lam4n10 ) ( * Nl2arg12 lam4n11 ) ( * Nl2arg13 lam4n12 ) ) 0 ) ( = ( + ( * ( - 1 ) lam4n6 ) ( * ( - 1 ) lam4n9 ) ( * Nl2arg21 lam4n10 ) ( * Nl2arg22 lam4n11 ) ( * Nl2arg23 lam4n12 ) ) 0 ) ( = ( + ( * ( - 1 ) lam4n5 ) ( * ( - 1 ) lam4n6 ) ( * ( - 1 ) lam4n7 ) ( * Nl2arg31 lam4n10 ) ( * Nl2arg32 lam4n11 ) ( * Nl2arg33 lam4n12 ) ) 0 ) ( = ( + ( * ( - 1 ) lam4n2 ) ( * ( - 1 ) lam4n8 ) ( * Nl2arg41 lam4n10 ) ( * Nl2arg42 lam4n11 ) ( * Nl2arg43 lam4n12 ) ) 0 ) ( = ( + ( * ( - 1 ) lam4n3 ) ( * ( - 1 ) lam4n5 ) ( * 1 lam4n8 ) ( * Nl2arg51 lam4n10 ) ( * Nl2arg52 lam4n11 ) ( * Nl2arg53 lam4n12 ) ) 0 ) ( = ( + ( * ( - 1 ) lam4n1 ) ( * ( - 1 ) lam4n4 ) ) 0 ) ) ( and ( >= lam5n0 0 ) ( >= lam5n1 0 ) ( >= lam5n2 0 ) ( >= lam5n3 0 ) ( >= lam5n4 0 ) ( >= lam5n5 0 ) ( >= lam5n6 0 ) ( >= lam5n7 0 ) ( >= lam5n8 0 ) ( >= lam5n10 0 ) ( >= lam5n11 0 ) ( >= lam5n12 0 ) ( > ( + ( * 1 lam5n5 ) ( * 1 lam5n6 ) ( * 1 lam5n7 ) ( * 1 lam5n8 ) ( * Nl2CT1 lam5n10 ) ( * Nl2CT2 lam5n11 ) ( * Nl2CT3 lam5n12 ) ( - 1 ( + ( + ( + ( + Nl2CT1 ( * Nl2arg11 1 ) ) ( * Nl2arg21 1 ) ) ( * Nl2arg31 9 ) ) ( * Nl2arg51 1 ) ) ) ) 0 ) ( = ( + ( * ( - 1 ) lam5n0 ) ( * ( - 1 ) lam5n1 ) ( * ( - 1 ) lam5n5 ) ( * 1 lam5n9 ) ( * Nl2arg11 lam5n10 ) ( * Nl2arg12 lam5n11 ) ( * Nl2arg13 lam5n12 ) ( - ( + ( + ( + 0 ( * Nl2arg11 1 ) ) ( * Nl2arg21 1 ) ) ( * Nl2arg31 ( - 1 ) ) ) ) ) 0 ) ( = ( + ( * ( - 1 ) lam5n6 ) ( * ( - 1 ) lam5n9 ) ( * Nl2arg21 lam5n10 ) ( * Nl2arg22 lam5n11 ) ( * Nl2arg23 lam5n12 ) ) 0 ) ( = ( + ( * ( - 1 ) lam5n5 ) ( * ( - 1 ) lam5n6 ) ( * ( - 1 ) lam5n7 ) ( * Nl2arg31 lam5n10 ) ( * Nl2arg32 lam5n11 ) ( * Nl2arg33 lam5n12 ) ) 0 ) ( = ( + ( * ( - 1 ) lam5n2 ) ( * ( - 1 ) lam5n8 ) ( * Nl2arg41 lam5n10 ) ( * Nl2arg42 lam5n11 ) ( * Nl2arg43 lam5n12 ) ( - ( + 0 Nl2arg41 ) ) ) 0 ) ( = ( + ( * ( - 1 ) lam5n3 ) ( * ( - 1 ) lam5n5 ) ( * 1 lam5n8 ) ( * Nl2arg51 lam5n10 ) ( * Nl2arg52 lam5n11 ) ( * Nl2arg53 lam5n12 ) ( - ( + 0 ( * Nl2arg51 1 ) ) ) ) 0 ) ( = ( + ( * ( - 1 ) lam5n1 ) ( * ( - 1 ) lam5n4 ) ( - ( + ( + ( + 0 ( * Nl2arg11 1 ) ) ( * Nl2arg21 1 ) ) ( * Nl2arg31 ( - 1 ) ) ) ) ) 0 ) ) ))
(assert ( or ( and ( >= lam4n0 0 ) ( >= lam4n1 0 ) ( >= lam4n2 0 ) ( >= lam4n3 0 ) ( >= lam4n4 0 ) ( >= lam4n5 0 ) ( >= lam4n6 0 ) ( >= lam4n7 0 ) ( >= lam4n8 0 ) ( >= lam4n10 0 ) ( >= lam4n11 0 ) ( >= lam4n12 0 ) ( > ( + ( * 1 lam4n5 ) ( * 1 lam4n6 ) ( * 1 lam4n7 ) ( * 1 lam4n8 ) ( * Nl2CT1 lam4n10 ) ( * Nl2CT2 lam4n11 ) ( * Nl2CT3 lam4n12 ) ( - 1 ) ) 0 ) ( = ( + ( * ( - 1 ) lam4n0 ) ( * ( - 1 ) lam4n1 ) ( * ( - 1 ) lam4n5 ) ( * 1 lam4n9 ) ( * Nl2arg11 lam4n10 ) ( * Nl2arg12 lam4n11 ) ( * Nl2arg13 lam4n12 ) ) 0 ) ( = ( + ( * ( - 1 ) lam4n6 ) ( * ( - 1 ) lam4n9 ) ( * Nl2arg21 lam4n10 ) ( * Nl2arg22 lam4n11 ) ( * Nl2arg23 lam4n12 ) ) 0 ) ( = ( + ( * ( - 1 ) lam4n5 ) ( * ( - 1 ) lam4n6 ) ( * ( - 1 ) lam4n7 ) ( * Nl2arg31 lam4n10 ) ( * Nl2arg32 lam4n11 ) ( * Nl2arg33 lam4n12 ) ) 0 ) ( = ( + ( * ( - 1 ) lam4n2 ) ( * ( - 1 ) lam4n8 ) ( * Nl2arg41 lam4n10 ) ( * Nl2arg42 lam4n11 ) ( * Nl2arg43 lam4n12 ) ) 0 ) ( = ( + ( * ( - 1 ) lam4n3 ) ( * ( - 1 ) lam4n5 ) ( * 1 lam4n8 ) ( * Nl2arg51 lam4n10 ) ( * Nl2arg52 lam4n11 ) ( * Nl2arg53 lam4n12 ) ) 0 ) ( = ( + ( * ( - 1 ) lam4n1 ) ( * ( - 1 ) lam4n4 ) ) 0 ) ) ( and ( >= lam6n0 0 ) ( >= lam6n1 0 ) ( >= lam6n2 0 ) ( >= lam6n3 0 ) ( >= lam6n4 0 ) ( >= lam6n5 0 ) ( >= lam6n6 0 ) ( >= lam6n7 0 ) ( >= lam6n8 0 ) ( >= lam6n10 0 ) ( >= lam6n11 0 ) ( >= lam6n12 0 ) ( > ( + ( * 1 lam6n5 ) ( * 1 lam6n6 ) ( * 1 lam6n7 ) ( * 1 lam6n8 ) ( * Nl2CT1 lam6n10 ) ( * Nl2CT2 lam6n11 ) ( * Nl2CT3 lam6n12 ) ( - 1 ( + ( + ( + ( + Nl2CT2 ( * Nl2arg12 1 ) ) ( * Nl2arg22 1 ) ) ( * Nl2arg32 9 ) ) ( * Nl2arg52 1 ) ) ) ) 0 ) ( = ( + ( * ( - 1 ) lam6n0 ) ( * ( - 1 ) lam6n1 ) ( * ( - 1 ) lam6n5 ) ( * 1 lam6n9 ) ( * Nl2arg11 lam6n10 ) ( * Nl2arg12 lam6n11 ) ( * Nl2arg13 lam6n12 ) ( - ( + ( + ( + 0 ( * Nl2arg12 1 ) ) ( * Nl2arg22 1 ) ) ( * Nl2arg32 ( - 1 ) ) ) ) ) 0 ) ( = ( + ( * ( - 1 ) lam6n6 ) ( * ( - 1 ) lam6n9 ) ( * Nl2arg21 lam6n10 ) ( * Nl2arg22 lam6n11 ) ( * Nl2arg23 lam6n12 ) ) 0 ) ( = ( + ( * ( - 1 ) lam6n5 ) ( * ( - 1 ) lam6n6 ) ( * ( - 1 ) lam6n7 ) ( * Nl2arg31 lam6n10 ) ( * Nl2arg32 lam6n11 ) ( * Nl2arg33 lam6n12 ) ) 0 ) ( = ( + ( * ( - 1 ) lam6n2 ) ( * ( - 1 ) lam6n8 ) ( * Nl2arg41 lam6n10 ) ( * Nl2arg42 lam6n11 ) ( * Nl2arg43 lam6n12 ) ( - ( + 0 Nl2arg42 ) ) ) 0 ) ( = ( + ( * ( - 1 ) lam6n3 ) ( * ( - 1 ) lam6n5 ) ( * 1 lam6n8 ) ( * Nl2arg51 lam6n10 ) ( * Nl2arg52 lam6n11 ) ( * Nl2arg53 lam6n12 ) ( - ( + 0 ( * Nl2arg52 1 ) ) ) ) 0 ) ( = ( + ( * ( - 1 ) lam6n1 ) ( * ( - 1 ) lam6n4 ) ( - ( + ( + ( + 0 ( * Nl2arg12 1 ) ) ( * Nl2arg22 1 ) ) ( * Nl2arg32 ( - 1 ) ) ) ) ) 0 ) ) ))
(assert ( or ( and ( >= lam4n0 0 ) ( >= lam4n1 0 ) ( >= lam4n2 0 ) ( >= lam4n3 0 ) ( >= lam4n4 0 ) ( >= lam4n5 0 ) ( >= lam4n6 0 ) ( >= lam4n7 0 ) ( >= lam4n8 0 ) ( >= lam4n10 0 ) ( >= lam4n11 0 ) ( >= lam4n12 0 ) ( > ( + ( * 1 lam4n5 ) ( * 1 lam4n6 ) ( * 1 lam4n7 ) ( * 1 lam4n8 ) ( * Nl2CT1 lam4n10 ) ( * Nl2CT2 lam4n11 ) ( * Nl2CT3 lam4n12 ) ( - 1 ) ) 0 ) ( = ( + ( * ( - 1 ) lam4n0 ) ( * ( - 1 ) lam4n1 ) ( * ( - 1 ) lam4n5 ) ( * 1 lam4n9 ) ( * Nl2arg11 lam4n10 ) ( * Nl2arg12 lam4n11 ) ( * Nl2arg13 lam4n12 ) ) 0 ) ( = ( + ( * ( - 1 ) lam4n6 ) ( * ( - 1 ) lam4n9 ) ( * Nl2arg21 lam4n10 ) ( * Nl2arg22 lam4n11 ) ( * Nl2arg23 lam4n12 ) ) 0 ) ( = ( + ( * ( - 1 ) lam4n5 ) ( * ( - 1 ) lam4n6 ) ( * ( - 1 ) lam4n7 ) ( * Nl2arg31 lam4n10 ) ( * Nl2arg32 lam4n11 ) ( * Nl2arg33 lam4n12 ) ) 0 ) ( = ( + ( * ( - 1 ) lam4n2 ) ( * ( - 1 ) lam4n8 ) ( * Nl2arg41 lam4n10 ) ( * Nl2arg42 lam4n11 ) ( * Nl2arg43 lam4n12 ) ) 0 ) ( = ( + ( * ( - 1 ) lam4n3 ) ( * ( - 1 ) lam4n5 ) ( * 1 lam4n8 ) ( * Nl2arg51 lam4n10 ) ( * Nl2arg52 lam4n11 ) ( * Nl2arg53 lam4n12 ) ) 0 ) ( = ( + ( * ( - 1 ) lam4n1 ) ( * ( - 1 ) lam4n4 ) ) 0 ) ) ( and ( >= lam7n0 0 ) ( >= lam7n1 0 ) ( >= lam7n2 0 ) ( >= lam7n3 0 ) ( >= lam7n4 0 ) ( >= lam7n5 0 ) ( >= lam7n6 0 ) ( >= lam7n7 0 ) ( >= lam7n8 0 ) ( >= lam7n10 0 ) ( >= lam7n11 0 ) ( >= lam7n12 0 ) ( > ( + ( * 1 lam7n5 ) ( * 1 lam7n6 ) ( * 1 lam7n7 ) ( * 1 lam7n8 ) ( * Nl2CT1 lam7n10 ) ( * Nl2CT2 lam7n11 ) ( * Nl2CT3 lam7n12 ) ( - 1 ( + ( + ( + ( + Nl2CT3 ( * Nl2arg13 1 ) ) ( * Nl2arg23 1 ) ) ( * Nl2arg33 9 ) ) ( * Nl2arg53 1 ) ) ) ) 0 ) ( = ( + ( * ( - 1 ) lam7n0 ) ( * ( - 1 ) lam7n1 ) ( * ( - 1 ) lam7n5 ) ( * 1 lam7n9 ) ( * Nl2arg11 lam7n10 ) ( * Nl2arg12 lam7n11 ) ( * Nl2arg13 lam7n12 ) ( - ( + ( + ( + 0 ( * Nl2arg13 1 ) ) ( * Nl2arg23 1 ) ) ( * Nl2arg33 ( - 1 ) ) ) ) ) 0 ) ( = ( + ( * ( - 1 ) lam7n6 ) ( * ( - 1 ) lam7n9 ) ( * Nl2arg21 lam7n10 ) ( * Nl2arg22 lam7n11 ) ( * Nl2arg23 lam7n12 ) ) 0 ) ( = ( + ( * ( - 1 ) lam7n5 ) ( * ( - 1 ) lam7n6 ) ( * ( - 1 ) lam7n7 ) ( * Nl2arg31 lam7n10 ) ( * Nl2arg32 lam7n11 ) ( * Nl2arg33 lam7n12 ) ) 0 ) ( = ( + ( * ( - 1 ) lam7n2 ) ( * ( - 1 ) lam7n8 ) ( * Nl2arg41 lam7n10 ) ( * Nl2arg42 lam7n11 ) ( * Nl2arg43 lam7n12 ) ( - ( + 0 Nl2arg43 ) ) ) 0 ) ( = ( + ( * ( - 1 ) lam7n3 ) ( * ( - 1 ) lam7n5 ) ( * 1 lam7n8 ) ( * Nl2arg51 lam7n10 ) ( * Nl2arg52 lam7n11 ) ( * Nl2arg53 lam7n12 ) ( - ( + 0 ( * Nl2arg53 1 ) ) ) ) 0 ) ( = ( + ( * ( - 1 ) lam7n1 ) ( * ( - 1 ) lam7n4 ) ( - ( + ( + ( + 0 ( * Nl2arg13 1 ) ) ( * Nl2arg23 1 ) ) ( * Nl2arg33 ( - 1 ) ) ) ) ) 0 ) ) ))
(assert ( or ( and ( not ( <= undef13 0 ) ) ( <= ( + 1 ( * ( - 1 ) undef33 ) ) 0 ) ( not ( <= ( + 2 undef11 undef13 ) 0 ) ) ( = ( * ( - 1 ) undef11 ) 0 ) ( = ( + ( - 2 ) undef34 ) 0 ) ( <= ( + ( + ( + ( + ( + ( + Nl2CT1 ( * Nl2arg11 0 ) ) ( * Nl2arg21 0 ) ) ( * Nl2arg31 0 ) ) ( * Nl2arg41 2 ) ) ( * Nl2arg51 2 ) ) ( * ( + 0 ( * Nl2arg11 1 ) ) undef11 ) ( * ( + 0 ( * Nl2arg31 1 ) ) undef13 ) ) 0 ) ( <= ( + ( + ( + ( + ( + ( + Nl2CT2 ( * Nl2arg12 0 ) ) ( * Nl2arg22 0 ) ) ( * Nl2arg32 0 ) ) ( * Nl2arg42 2 ) ) ( * Nl2arg52 2 ) ) ( * ( + 0 ( * Nl2arg12 1 ) ) undef11 ) ( * ( + 0 ( * Nl2arg32 1 ) ) undef13 ) ) 0 ) ( <= ( + ( + ( + ( + ( + ( + Nl2CT3 ( * Nl2arg13 0 ) ) ( * Nl2arg23 0 ) ) ( * Nl2arg33 0 ) ) ( * Nl2arg43 2 ) ) ( * Nl2arg53 2 ) ) ( * ( + 0 ( * Nl2arg13 1 ) ) undef11 ) ( * ( + 0 ( * Nl2arg33 1 ) ) undef13 ) ) 0 ) ) ( and ( not ( <= ( + 1 ( * ( - 1 ) undef16 ) undef17 ) 0 ) ) ( <= ( * ( - 1 ) undef16 ) 0 ) ( <= ( * ( - 1 ) undef17 ) 0 ) ( not ( <= undef21 0 ) ) ( <= ( + 1 ( * ( - 1 ) undef33 ) ) 0 ) ( <= ( + 3 ( * ( - 1 ) undef34 ) ) 0 ) ( not ( <= ( + 3 undef16 ( * ( - 1 ) undef17 ) undef21 ) 0 ) ) ( <= ( + ( + ( + ( + ( + ( + Nl2CT1 ( * Nl2arg11 0 ) ) ( * Nl2arg21 0 ) ) ( * Nl2arg31 0 ) ) ( * Nl2arg41 0 ) ) ( * Nl2arg51 3 ) ) ( * ( + 0 ( * Nl2arg11 1 ) ) undef16 ) ( * ( + ( + 0 ( * Nl2arg21 1 ) ) ( * Nl2arg31 ( - 1 ) ) ) undef17 ) ( * ( + 0 ( * Nl2arg31 1 ) ) undef21 ) ( * ( + 0 ( * Nl2arg41 1 ) ) undef34 ) ) 0 ) ( <= ( + ( + ( + ( + ( + ( + Nl2CT2 ( * Nl2arg12 0 ) ) ( * Nl2arg22 0 ) ) ( * Nl2arg32 0 ) ) ( * Nl2arg42 0 ) ) ( * Nl2arg52 3 ) ) ( * ( + 0 ( * Nl2arg12 1 ) ) undef16 ) ( * ( + ( + 0 ( * Nl2arg22 1 ) ) ( * Nl2arg32 ( - 1 ) ) ) undef17 ) ( * ( + 0 ( * Nl2arg32 1 ) ) undef21 ) ( * ( + 0 ( * Nl2arg42 1 ) ) undef34 ) ) 0 ) ( <= ( + ( + ( + ( + ( + ( + Nl2CT3 ( * Nl2arg13 0 ) ) ( * Nl2arg23 0 ) ) ( * Nl2arg33 0 ) ) ( * Nl2arg43 0 ) ) ( * Nl2arg53 3 ) ) ( * ( + 0 ( * Nl2arg13 1 ) ) undef16 ) ( * ( + ( + 0 ( * Nl2arg23 1 ) ) ( * Nl2arg33 ( - 1 ) ) ) undef17 ) ( * ( + 0 ( * Nl2arg33 1 ) ) undef21 ) ( * ( + 0 ( * Nl2arg43 1 ) ) undef34 ) ) 0 ) ) ))
(assert ( or ( and ( and ( >= lam17n0 0 ) ( >= lam17n1 0 ) ( >= lam17n2 0 ) ( >= lam17n3 0 ) ( >= lam17n4 0 ) ( >= lam17n5 0 ) ( >= lam17n7 0 ) ( >= lam17n8 0 ) ( >= lam17n9 0 ) ( > ( + ( * 1 lam17n3 ) ( * 1 lam17n4 ) ( * 1 lam17n5 ) ( * Nl2CT1 lam17n7 ) ( * Nl2CT2 lam17n8 ) ( * Nl2CT3 lam17n9 ) ( - 1 ( - ( + ( + ( + RFN1_CT ( * RFN1_arg1 1 ) ) ( * RFN1_arg2 1 ) ) ( * RFN1_arg3 9 ) ) RFN1_CT ) ) ) 0 ) ( = ( + ( * ( - 1 ) lam17n0 ) ( * ( - 1 ) lam17n3 ) ( * 1 lam17n6 ) ( * Nl2arg11 lam17n7 ) ( * Nl2arg12 lam17n8 ) ( * Nl2arg13 lam17n9 ) ( - ( - ( + ( + ( + 0 ( * RFN1_arg1 1 ) ) ( * RFN1_arg2 1 ) ) ( * RFN1_arg3 ( - 1 ) ) ) RFN1_arg1 ) ) ) 0 ) ( = ( + ( * ( - 1 ) lam17n4 ) ( * ( - 1 ) lam17n6 ) ( * Nl2arg21 lam17n7 ) ( * Nl2arg22 lam17n8 ) ( * Nl2arg23 lam17n9 ) ( - ( - RFN1_arg2 ) ) ) 0 ) ( = ( + ( * ( - 1 ) lam17n3 ) ( * ( - 1 ) lam17n4 ) ( * ( - 1 ) lam17n5 ) ( * Nl2arg31 lam17n7 ) ( * Nl2arg32 lam17n8 ) ( * Nl2arg33 lam17n9 ) ( - ( - RFN1_arg3 ) ) ) 0 ) ( = ( + ( * 1 lam17n1 ) ( * ( - 1 ) lam17n2 ) ( * Nl2arg41 lam17n7 ) ( * Nl2arg42 lam17n8 ) ( * Nl2arg43 lam17n9 ) ( - ( - ( + 0 RFN1_arg4 ) RFN1_arg4 ) ) ) 0 ) ( = ( + ( * ( - 1 ) lam17n1 ) ( * ( - 1 ) lam17n3 ) ( * Nl2arg51 lam17n7 ) ( * Nl2arg52 lam17n8 ) ( * Nl2arg53 lam17n9 ) ( - ( - ( + 0 RFN1_arg5 ) RFN1_arg5 ) ) ) 0 ) ) ( and ( and ( >= lam15n0 0 ) ( >= lam15n1 0 ) ( >= lam15n2 0 ) ( >= lam15n3 0 ) ( >= lam15n4 0 ) ( >= lam15n5 0 ) ( >= lam15n7 0 ) ( >= lam15n8 0 ) ( >= lam15n9 0 ) ( > ( + ( * 1 lam15n3 ) ( * 1 lam15n4 ) ( * 1 lam15n5 ) ( * Nl2CT1 lam15n7 ) ( * Nl2CT2 lam15n8 ) ( * Nl2CT3 lam15n9 ) ( - 1 ( - RFN1_CT ) ) ) 0 ) ( = ( + ( * ( - 1 ) lam15n0 ) ( * ( - 1 ) lam15n3 ) ( * 1 lam15n6 ) ( * Nl2arg11 lam15n7 ) ( * Nl2arg12 lam15n8 ) ( * Nl2arg13 lam15n9 ) ( - ( - RFN1_arg1 ) ) ) 0 ) ( = ( + ( * ( - 1 ) lam15n4 ) ( * ( - 1 ) lam15n6 ) ( * Nl2arg21 lam15n7 ) ( * Nl2arg22 lam15n8 ) ( * Nl2arg23 lam15n9 ) ( - ( - RFN1_arg2 ) ) ) 0 ) ( = ( + ( * ( - 1 ) lam15n3 ) ( * ( - 1 ) lam15n4 ) ( * ( - 1 ) lam15n5 ) ( * Nl2arg31 lam15n7 ) ( * Nl2arg32 lam15n8 ) ( * Nl2arg33 lam15n9 ) ( - ( - RFN1_arg3 ) ) ) 0 ) ( = ( + ( * 1 lam15n1 ) ( * ( - 1 ) lam15n2 ) ( * Nl2arg41 lam15n7 ) ( * Nl2arg42 lam15n8 ) ( * Nl2arg43 lam15n9 ) ( - ( - RFN1_arg4 ) ) ) 0 ) ( = ( + ( * ( - 1 ) lam15n1 ) ( * ( - 1 ) lam15n3 ) ( * Nl2arg51 lam15n7 ) ( * Nl2arg52 lam15n8 ) ( * Nl2arg53 lam15n9 ) ( - ( - RFN1_arg5 ) ) ) 0 ) ) ( and ( >= lam16n0 0 ) ( >= lam16n1 0 ) ( >= lam16n2 0 ) ( >= lam16n3 0 ) ( >= lam16n4 0 ) ( >= lam16n5 0 ) ( >= lam16n7 0 ) ( >= lam16n8 0 ) ( >= lam16n9 0 ) ( > ( + ( * 1 lam16n3 ) ( * 1 lam16n4 ) ( * 1 lam16n5 ) ( * Nl2CT1 lam16n7 ) ( * Nl2CT2 lam16n8 ) ( * Nl2CT3 lam16n9 ) ( - 1 ( + ( - ( + ( + ( + RFN1_CT ( * RFN1_arg1 1 ) ) ( * RFN1_arg2 1 ) ) ( * RFN1_arg3 9 ) ) RFN1_CT ) 1 ) ) ) 0 ) ( = ( + ( * ( - 1 ) lam16n0 ) ( * ( - 1 ) lam16n3 ) ( * 1 lam16n6 ) ( * Nl2arg11 lam16n7 ) ( * Nl2arg12 lam16n8 ) ( * Nl2arg13 lam16n9 ) ( - ( - ( + ( + ( + 0 ( * RFN1_arg1 1 ) ) ( * RFN1_arg2 1 ) ) ( * RFN1_arg3 ( - 1 ) ) ) RFN1_arg1 ) ) ) 0 ) ( = ( + ( * ( - 1 ) lam16n4 ) ( * ( - 1 ) lam16n6 ) ( * Nl2arg21 lam16n7 ) ( * Nl2arg22 lam16n8 ) ( * Nl2arg23 lam16n9 ) ( - ( - RFN1_arg2 ) ) ) 0 ) ( = ( + ( * ( - 1 ) lam16n3 ) ( * ( - 1 ) lam16n4 ) ( * ( - 1 ) lam16n5 ) ( * Nl2arg31 lam16n7 ) ( * Nl2arg32 lam16n8 ) ( * Nl2arg33 lam16n9 ) ( - ( - RFN1_arg3 ) ) ) 0 ) ( = ( + ( * 1 lam16n1 ) ( * ( - 1 ) lam16n2 ) ( * Nl2arg41 lam16n7 ) ( * Nl2arg42 lam16n8 ) ( * Nl2arg43 lam16n9 ) ( - ( - ( + 0 RFN1_arg4 ) RFN1_arg4 ) ) ) 0 ) ( = ( + ( * ( - 1 ) lam16n1 ) ( * ( - 1 ) lam16n3 ) ( * Nl2arg51 lam16n7 ) ( * Nl2arg52 lam16n8 ) ( * Nl2arg53 lam16n9 ) ( - ( - ( + 0 RFN1_arg5 ) RFN1_arg5 ) ) ) 0 ) ) ) ) ( and ( >= lam14n0 0 ) ( >= lam14n1 0 ) ( >= lam14n2 0 ) ( >= lam14n3 0 ) ( >= lam14n4 0 ) ( >= lam14n5 0 ) ( >= lam14n7 0 ) ( >= lam14n8 0 ) ( >= lam14n9 0 ) ( > ( + ( * 1 lam14n3 ) ( * 1 lam14n4 ) ( * 1 lam14n5 ) ( * Nl2CT1 lam14n7 ) ( * Nl2CT2 lam14n8 ) ( * Nl2CT3 lam14n9 ) ( - 1 ) ) 0 ) ( = ( + ( * ( - 1 ) lam14n0 ) ( * ( - 1 ) lam14n3 ) ( * 1 lam14n6 ) ( * Nl2arg11 lam14n7 ) ( * Nl2arg12 lam14n8 ) ( * Nl2arg13 lam14n9 ) ) 0 ) ( = ( + ( * ( - 1 ) lam14n4 ) ( * ( - 1 ) lam14n6 ) ( * Nl2arg21 lam14n7 ) ( * Nl2arg22 lam14n8 ) ( * Nl2arg23 lam14n9 ) ) 0 ) ( = ( + ( * ( - 1 ) lam14n3 ) ( * ( - 1 ) lam14n4 ) ( * ( - 1 ) lam14n5 ) ( * Nl2arg31 lam14n7 ) ( * Nl2arg32 lam14n8 ) ( * Nl2arg33 lam14n9 ) ) 0 ) ( = ( + ( * 1 lam14n1 ) ( * ( - 1 ) lam14n2 ) ( * Nl2arg41 lam14n7 ) ( * Nl2arg42 lam14n8 ) ( * Nl2arg43 lam14n9 ) ) 0 ) ( = ( + ( * ( - 1 ) lam14n1 ) ( * ( - 1 ) lam14n3 ) ( * Nl2arg51 lam14n7 ) ( * Nl2arg52 lam14n8 ) ( * Nl2arg53 lam14n9 ) ) 0 ) ) ))
(check-sat)
(exit)
